500          91500          88500          93500          101000          11500          42000          72500          123000          183500          224000          304500          385000          47500          01000          11500          42000          72500          113000          163500          224000          294500          405000          49500          01000          01500          12000          22500          43000          53500          84000          10